(set-info :source |printed by MathSAT|)
(declare-fun |.x{133}| () Int)
(declare-fun |.y{10}| () Int)
(declare-fun |.y{8}| () Int)
(declare-fun |.y{11}| () Int)
(declare-fun |.y{9}| () Int)
(declare-fun |.y{12}| () Int)
(declare-fun |.x{134}| () (Array Int Int))
(declare-fun |.y{13}| () (Array Int Int))
(declare-fun |.x{136}| () Int)
(declare-fun |.y{14}| () Int)
(declare-fun |.x{132}| () Int)
(declare-fun |.y{15}| () Int)
(declare-fun |.x{129}| () Int)
(declare-fun |.y{16}| () Int)
(declare-fun |.loc{4}| () Bool)
(declare-fun |.loc{7}| () Bool)
(declare-fun |.loc{5}| () Bool)
(declare-fun |.loc{8}| () Bool)
(declare-fun |.loc{6}| () Bool)
(declare-fun |.loc{9}| () Bool)
(declare-fun |.x{79}| () Int)
(declare-fun |.x{76}| () Int)
(declare-fun |.x{135}| () Int)
(declare-fun |.x{77}| () Bool)
(declare-fun |.x{70}| () Int)
(declare-fun |.x{73}| () Bool)
(declare-fun |.x{67}| () Bool)
(declare-fun |.x{71}| () Int)
(declare-fun |.x{75}| () Bool)
(declare-fun |.x{72}| () Int)
(declare-fun |.x{78}| () Bool)
(define-fun .def_22 () Bool (! |.loc{4}| :next |.loc{7}|))
(define-fun .def_82 () Bool (not .def_22))
(define-fun .def_24 () Bool (! |.loc{5}| :next |.loc{8}|))
(define-fun .def_38 () Bool (not .def_24))
(define-fun .def_259 () Bool (and .def_38 .def_82))
(define-fun .def_26 () Bool (! |.loc{6}| :next |.loc{9}|))
(define-fun .def_257 () Bool (not .def_26))
(define-fun .def_260 () Bool (! (and .def_257 .def_259) :init true))
(define-fun .def_16 () Int (! |.x{136}| :next |.y{14}|))
(define-fun .def_14 () (Array Int Int) (! |.x{134}| :next |.y{13}|))
(define-fun .def_103 () Int (select .def_14 |.x{135}|))
(define-fun .def_229 () Bool (<= .def_103 .def_16))
(define-fun .def_247 () Bool (not .def_229))
(define-fun .def_93 () Int (* (- 1) |.x{135}|))
(define-fun .def_18 () Int (! |.x{132}| :next |.y{15}|))
(define-fun .def_210 () Int (+ .def_18 .def_93))
(define-fun .def_8 () Int (! |.x{133}| :next |.y{10}|))
(define-fun .def_211 () Int (+ .def_8 .def_210))
(define-fun .def_212 () Bool (= .def_211 0))
(define-fun .def_241 () Bool (and .def_22 .def_212))
(define-fun .def_20 () Int (! |.x{129}| :next |.y{16}|))
(define-fun .def_220 () Bool (<= .def_20 .def_18))
(define-fun .def_221 () Bool (not .def_220))
(define-fun .def_242 () Bool (and .def_221 .def_241))
(define-fun .def_88 () Bool (<= .def_8 0))
(define-fun .def_86 () Bool (<= |.x{135}| 0))
(define-fun .def_87 () Bool (not .def_86))
(define-fun .def_89 () Bool (or .def_87 .def_88))
(define-fun .def_243 () Bool (and .def_89 .def_242))
(define-fun .def_99 () Bool (not .def_88))
(define-fun .def_244 () Bool (and .def_99 .def_243))
(define-fun .def_245 () Bool (and |.loc{9}| .def_244))
(define-fun .def_137 () Bool (not |.loc{7}|))
(define-fun .def_246 () Bool (and .def_137 .def_245))
(define-fun .def_248 () Bool (and .def_246 .def_247))
(define-fun .def_31 () Bool (not |.loc{8}|))
(define-fun .def_249 () Bool (and .def_31 .def_248))
(define-fun .def_238 () Bool (= |.y{15}| 0))
(define-fun .def_231 () Bool (= |.y{14}| .def_18))
(define-fun .def_166 () Bool (= .def_14 |.y{13}|))
(define-fun .def_60 () Bool (= .def_8 |.y{10}|))
(define-fun .def_207 () Bool (and .def_60 .def_166))
(define-fun .def_232 () Bool (and .def_207 .def_231))
(define-fun .def_171 () Bool (= .def_20 |.y{16}|))
(define-fun .def_233 () Bool (and .def_171 .def_232))
(define-fun .def_234 () Bool (and |.loc{7}| .def_233))
(define-fun .def_45 () Bool (not |.loc{9}|))
(define-fun .def_235 () Bool (and .def_45 .def_234))
(define-fun .def_236 () Bool (and |.loc{8}| .def_235))
(define-fun .def_237 () Bool (and .def_82 .def_236))
(define-fun .def_239 () Bool (and .def_237 .def_238))
(define-fun .def_186 () Bool (<= .def_20 .def_16))
(define-fun .def_240 () Bool (and .def_186 .def_239))
(define-fun .def_250 () Bool (or .def_240 .def_249))
(define-fun .def_216 () Int (* (- 1) |.y{15}|))
(define-fun .def_217 () Int (+ .def_18 .def_216))
(define-fun .def_218 () Bool (= .def_217 (- 1)))
(define-fun .def_213 () Bool (and .def_207 .def_212))
(define-fun .def_214 () Bool (and .def_22 .def_213))
(define-fun .def_215 () Bool (and .def_171 .def_214))
(define-fun .def_219 () Bool (and .def_215 .def_218))
(define-fun .def_222 () Bool (and .def_219 .def_221))
(define-fun .def_28 () Bool (= .def_16 |.y{14}|))
(define-fun .def_223 () Bool (and .def_28 .def_222))
(define-fun .def_224 () Bool (and .def_89 .def_223))
(define-fun .def_225 () Bool (and .def_99 .def_224))
(define-fun .def_226 () Bool (and |.loc{7}| .def_225))
(define-fun .def_227 () Bool (and .def_45 .def_226))
(define-fun .def_228 () Bool (and |.loc{8}| .def_227))
(define-fun .def_230 () Bool (and .def_228 .def_229))
(define-fun .def_251 () Bool (or .def_230 .def_250))
(define-fun .def_252 () Bool (and .def_24 .def_251))
(define-fun .def_202 () Bool (= .def_16 |.y{16}|))
(define-fun .def_10 () Int (! |.y{8}| :next |.y{11}|))
(define-fun .def_200 () Bool (= |.y{10}| .def_10))
(define-fun .def_195 () Int (select .def_14 .def_10))
(define-fun .def_196 () Bool (= |.y{15}| .def_195))
(define-fun .def_193 () Bool (= |.y{14}| 1))
(define-fun .def_191 () Bool (and .def_38 .def_166))
(define-fun .def_194 () Bool (and .def_191 .def_193))
(define-fun .def_197 () Bool (and .def_194 .def_196))
(define-fun .def_198 () Bool (and .def_22 .def_197))
(define-fun .def_12 () Int (! |.y{9}| :next |.y{12}|))
(define-fun .def_47 () Bool (<= .def_16 .def_12))
(define-fun .def_199 () Bool (and .def_47 .def_198))
(define-fun .def_201 () Bool (and .def_199 .def_200))
(define-fun .def_203 () Bool (and .def_201 .def_202))
(define-fun .def_204 () Bool (and .def_45 .def_203))
(define-fun .def_205 () Bool (and |.loc{8}| .def_204))
(define-fun .def_206 () Bool (and .def_137 .def_205))
(define-fun .def_253 () Bool (or .def_206 .def_252))
(define-fun .def_115 () Bool (and |.x{77}| |.x{67}|))
(define-fun .def_188 () Bool (not .def_115))
(define-fun .def_187 () Bool (not .def_186))
(define-fun .def_189 () Bool (or .def_187 .def_188))
(define-fun .def_183 () Bool (= |.y{15}| |.x{76}|))
(define-fun .def_128 () Bool (not |.x{75}|))
(define-fun .def_184 () Bool (or .def_128 .def_183))
(define-fun .def_180 () Bool (= |.y{15}| |.x{79}|))
(define-fun .def_156 () Bool (and |.x{77}| |.x{78}|))
(define-fun .def_157 () Bool (not .def_156))
(define-fun .def_181 () Bool (or .def_157 .def_180))
(define-fun .def_176 () Int (* (- 1) |.y{14}|))
(define-fun .def_177 () Int (+ .def_16 .def_176))
(define-fun .def_178 () Bool (= .def_177 (- 1)))
(define-fun .def_173 () Bool (not |.x{73}|))
(define-fun .def_174 () Bool (or .def_157 .def_173))
(define-fun .def_168 () Bool (not |.x{78}|))
(define-fun .def_169 () Bool (or |.x{77}| .def_168))
(define-fun .def_162 () Bool (= |.x{76}| |.x{72}|))
(define-fun .def_163 () Bool (or .def_128 .def_162))
(define-fun .def_160 () Bool (or |.x{75}| .def_156))
(define-fun .def_154 () Bool (= .def_18 |.x{79}|))
(define-fun .def_158 () Bool (or .def_154 .def_157))
(define-fun .def_147 () Bool (and |.x{77}| |.x{75}|))
(define-fun .def_150 () Bool (not .def_147))
(define-fun .def_151 () Bool (or |.x{73}| .def_150))
(define-fun .def_148 () Bool (or .def_128 .def_147))
(define-fun .def_141 () Int (select .def_14 |.x{71}|))
(define-fun .def_143 () Bool (= .def_141 |.x{72}|))
(define-fun .def_144 () Bool (or .def_128 .def_143))
(define-fun .def_139 () Bool (or .def_99 .def_128))
(define-fun .def_132 () Bool (<= |.x{71}| 0))
(define-fun .def_133 () Bool (not .def_132))
(define-fun .def_134 () Bool (or .def_88 .def_133))
(define-fun .def_135 () Bool (or .def_128 .def_134))
(define-fun .def_123 () Int (* (- 1) |.x{71}|))
(define-fun .def_124 () Int (+ .def_16 .def_123))
(define-fun .def_125 () Int (+ .def_8 .def_124))
(define-fun .def_126 () Bool (= .def_125 0))
(define-fun .def_129 () Bool (or .def_126 .def_128))
(define-fun .def_91 () Bool (not |.x{77}|))
(define-fun .def_116 () Bool (or .def_91 .def_115))
(define-fun .def_108 () Bool (<= |.x{70}| .def_18))
(define-fun .def_109 () Bool (not .def_108))
(define-fun .def_111 () Bool (= .def_109 |.x{73}|))
(define-fun .def_112 () Bool (or .def_91 .def_111))
(define-fun .def_105 () Bool (= .def_103 |.x{70}|))
(define-fun .def_106 () Bool (or .def_91 .def_105))
(define-fun .def_100 () Bool (or .def_91 .def_99))
(define-fun .def_94 () Int (+ .def_16 .def_93))
(define-fun .def_95 () Int (+ .def_8 .def_94))
(define-fun .def_96 () Bool (= .def_95 0))
(define-fun .def_97 () Bool (or .def_91 .def_96))
(define-fun .def_92 () Bool (or .def_89 .def_91))
(define-fun .def_98 () Bool (and .def_92 .def_97))
(define-fun .def_101 () Bool (and .def_98 .def_100))
(define-fun .def_102 () Bool (and .def_24 .def_101))
(define-fun .def_107 () Bool (and .def_102 .def_106))
(define-fun .def_113 () Bool (and .def_107 .def_112))
(define-fun .def_117 () Bool (and .def_113 .def_116))
(define-fun .def_130 () Bool (and .def_117 .def_129))
(define-fun .def_131 () Bool (and |.loc{8}| .def_130))
(define-fun .def_136 () Bool (and .def_131 .def_135))
(define-fun .def_138 () Bool (and .def_136 .def_137))
(define-fun .def_140 () Bool (and .def_138 .def_139))
(define-fun .def_145 () Bool (and .def_140 .def_144))
(define-fun .def_146 () Bool (and .def_45 .def_145))
(define-fun .def_149 () Bool (and .def_146 .def_148))
(define-fun .def_152 () Bool (and .def_149 .def_151))
(define-fun .def_153 () Bool (and .def_82 .def_152))
(define-fun .def_159 () Bool (and .def_153 .def_158))
(define-fun .def_161 () Bool (and .def_159 .def_160))
(define-fun .def_164 () Bool (and .def_161 .def_163))
(define-fun .def_165 () Bool (and .def_60 .def_164))
(define-fun .def_167 () Bool (and .def_165 .def_166))
(define-fun .def_170 () Bool (and .def_167 .def_169))
(define-fun .def_172 () Bool (and .def_170 .def_171))
(define-fun .def_175 () Bool (and .def_172 .def_174))
(define-fun .def_179 () Bool (and .def_175 .def_178))
(define-fun .def_182 () Bool (and .def_179 .def_181))
(define-fun .def_185 () Bool (and .def_182 .def_184))
(define-fun .def_190 () Bool (and .def_185 .def_189))
(define-fun .def_254 () Bool (or .def_190 .def_253))
(define-fun .def_75 () Bool (<= |.y{14}| 0))
(define-fun .def_76 () Bool (not .def_75))
(define-fun .def_73 () Bool (= |.y{12}| 0))
(define-fun .def_71 () Bool (<= |.y{11}| 0))
(define-fun .def_72 () Bool (not .def_71))
(define-fun .def_74 () Bool (and .def_72 .def_73))
(define-fun .def_77 () Bool (and .def_74 .def_76))
(define-fun .def_78 () Bool (and |.loc{7}| .def_77))
(define-fun .def_79 () Bool (and .def_31 .def_78))
(define-fun .def_80 () Bool (and .def_38 .def_79))
(define-fun .def_81 () Bool (and .def_45 .def_80))
(define-fun .def_83 () Bool (and .def_81 .def_82))
(define-fun .def_84 () Bool (and .def_60 .def_83))
(define-fun .def_255 () Bool (or .def_84 .def_254))
(define-fun .def_69 () Bool (= .def_10 |.y{11}|))
(define-fun .def_62 () Bool (<= .def_10 0))
(define-fun .def_67 () Bool (not .def_62))
(define-fun .def_63 () Bool (<= |.x{76}| 0))
(define-fun .def_64 () Bool (not .def_63))
(define-fun .def_65 () Bool (or .def_62 .def_64))
(define-fun .def_55 () Int (* (- 1) |.x{76}|))
(define-fun .def_56 () Int (+ .def_12 .def_55))
(define-fun .def_57 () Int (+ .def_10 .def_56))
(define-fun .def_58 () Bool (= .def_57 0))
(define-fun .def_48 () Bool (not .def_47))
(define-fun .def_42 () (Array Int Int) (store .def_14 |.x{76}| |.x{79}|))
(define-fun .def_43 () Bool (= |.y{13}| .def_42))
(define-fun .def_34 () Int (* (- 1) |.y{12}|))
(define-fun .def_35 () Int (+ .def_12 .def_34))
(define-fun .def_36 () Bool (= .def_35 (- 1)))
(define-fun .def_29 () Bool (and .def_22 .def_28))
(define-fun .def_30 () Bool (and |.loc{7}| .def_29))
(define-fun .def_32 () Bool (and .def_30 .def_31))
(define-fun .def_37 () Bool (and .def_32 .def_36))
(define-fun .def_39 () Bool (and .def_37 .def_38))
(define-fun .def_44 () Bool (and .def_39 .def_43))
(define-fun .def_46 () Bool (and .def_44 .def_45))
(define-fun .def_49 () Bool (and .def_46 .def_48))
(define-fun .def_59 () Bool (and .def_49 .def_58))
(define-fun .def_61 () Bool (and .def_59 .def_60))
(define-fun .def_66 () Bool (and .def_61 .def_65))
(define-fun .def_68 () Bool (and .def_66 .def_67))
(define-fun .def_70 () Bool (and .def_68 .def_69))
(define-fun .def_256 () Bool (or .def_70 .def_255))
(define-fun .def_258 () Bool (! (and .def_256 .def_257) :trans true))
(define-fun .def_261 () Bool (and .def_26 .def_259))
(define-fun .def_262 () Bool (! (not .def_261) :invar-property 0))
(assert true)
